nN = 5;
nR = 15;
nH = 1;

a = [[17, 21, 22, 18, 24, 15, 20, 18, 19, 18, 16, 22, 24, 24, 16], [23, 16, 21, 16, 17, 16, 19, 25, 18, 21, 17, 15, 25, 17, 24], [16, 20, 16, 25, 24, 16, 17, 19, 19, 18, 20, 16, 17, 21, 24], [19, 19, 22, 22, 20, 16, 19, 17, 21, 19, 25, 23, 25, 25, 25], [18, 19, 15, 15, 21, 25, 16, 16, 23, 15, 22, 17, 19, 22, 24]];
c = [[[0, 0, 0, 0, 0, 0, 0, 0, 0, 0, 0, 0, 0, 0, 0], [40, 49, 39, 40, 48, 46, 47, 40, 39, 37, 50, 46, 38, 44, 49], [33, 48, 36, 48, 49, 50, 50, 30, 36, 36, 36, 45, 49, 43, 38], [49, 32, 37, 32, 31, 46, 50, 48, 50, 35, 33, 36, 37, 46, 50], [35, 49, 38, 32, 34, 46, 49, 49, 35, 43, 50, 44, 49, 45, 37]], [[0, 0, 0, 0, 0, 0, 0, 0, 0, 0, 0, 0, 0, 0, 0], [0, 0, 0, 0, 0, 0, 0, 0, 0, 0, 0, 0, 0, 0, 0], [39, 33, 43, 44, 38, 41, 31, 34, 46, 46, 44, 30, 43, 35, 32], [49, 33, 39, 46, 50, 49, 41, 35, 42, 40, 38, 32, 33, 30, 40], [46, 36, 44, 41, 47, 47, 37, 44, 32, 39, 37, 48, 38, 42, 44]], [[0, 0, 0, 0, 0, 0, 0, 0, 0, 0, 0, 0, 0, 0, 0], [0, 0, 0, 0, 0, 0, 0, 0, 0, 0, 0, 0, 0, 0, 0], [0, 0, 0, 0, 0, 0, 0, 0, 0, 0, 0, 0, 0, 0, 0], [31, 40, 40, 49, 39, 48, 46, 40, 50, 31, 30, 37, 35, 49, 33], [39, 43, 45, 35, 47, 41, 43, 42, 39, 47, 49, 33, 50, 46, 32]], [[0, 0, 0, 0, 0, 0, 0, 0, 0, 0, 0, 0, 0, 0, 0], [0, 0, 0, 0, 0, 0, 0, 0, 0, 0, 0, 0, 0, 0, 0], [0, 0, 0, 0, 0, 0, 0, 0, 0, 0, 0, 0, 0, 0, 0], [0, 0, 0, 0, 0, 0, 0, 0, 0, 0, 0, 0, 0, 0, 0], [32, 40, 43, 43, 33, 40, 42, 42, 32, 43, 50, 44, 40, 39, 49]], [[0, 0, 0, 0, 0, 0, 0, 0, 0, 0, 0, 0, 0, 0, 0], [0, 0, 0, 0, 0, 0, 0, 0, 0, 0, 0, 0, 0, 0, 0], [0, 0, 0, 0, 0, 0, 0, 0, 0, 0, 0, 0, 0, 0, 0], [0, 0, 0, 0, 0, 0, 0, 0, 0, 0, 0, 0, 0, 0, 0], [0, 0, 0, 0, 0, 0, 0, 0, 0, 0, 0, 0, 0, 0, 0]]];

q = [[[8], [15], [14], [23], [8], [16], [8], [25], [9], [17], [25], [15], [10], [8], [24]], [[15], [7], [23], [22], [11], [11], [12], [10], [17], [16], [7], [16], [10], [18], [22]], [[21], [20], [6], [22], [24], [10], [24], [9], [21], [14], [11], [14], [11], [19], [16]], [[20], [11], [8], [14], [9], [5], [6], [19], [19], [7], [6], [6], [13], [9], [18]], [[8], [13], [13], [13], [10], [20], [25], [16], [16], [17], [10], [10], [5], [12], [23]]];
Q = [[36], [34], [38], [27], [33]];
